50 10188

446
356
448
94
379
180
248
97
101
165
417
271
325
353
386
186
331
130
263
54
372
353
470
214
138
131
495
30
185
136
454
23
145
120
46
450
283
177
465
408
35
430
292
386
285
78
231
117
134
423
